(set-info :source |printed by MathSAT|)
(declare-fun param_init_invalid () Int)
(declare-fun call__DRAGON_.erreur () Bool)
(declare-fun call__DRAGON_.flby () Int)
(declare-fun call__DRAGON_.ite51 () Int)
(declare-fun call_First2.First () Int)
(declare-fun _R4_ () Bool)
(declare-fun call__DRAGON_.ite16 () Int)
(declare-fun call__DRAGON_.ite34 () Int)
(declare-fun call__DRAGON_.ite13 () Int)
(declare-fun call__DRAGON_.ite19 () Int)
(declare-fun call_First4.First () Int)
(declare-fun _R13_ () Bool)
(declare-fun _R10_ () Bool)
(declare-fun call__DRAGON_.g05 () Bool)
(declare-fun _OK_ () Bool)
(declare-fun call__DRAGON_.ite38 () Int)
(declare-fun env () Bool)
(declare-fun call__DRAGON_.ite41 () Int)
(declare-fun call__DRAGON_.g04 () Bool)
(declare-fun call__DRAGON_.ite2 () Int)
(declare-fun call__DRAGON_.ite37 () Int)
(declare-fun invalid () Int)
(declare-fun call__DRAGON_.ite32 () Int)
(declare-fun call__DRAGON_.ite49 () Int)
(declare-fun param_e11 () Bool)
(declare-fun param_e09 () Bool)
(declare-fun call__DRAGON_.flby4 () Int)
(declare-fun call_Sofar.flby () Bool)
(declare-fun call__DRAGON_.ite12 () Int)
(declare-fun call__DRAGON_.flby3 () Int)
(declare-fun call__DRAGON_.ite6 () Int)
(declare-fun call__DRAGON_.exclusive () Int)
(declare-fun call__DRAGON_.ite26 () Int)
(declare-fun call__DRAGON_.ite59 () Int)
(declare-fun call__DRAGON_.ite29 () Int)
(declare-fun call__DRAGON_.ite33 () Int)
(declare-fun param_e05 () Bool)
(declare-fun _R1_ () Bool)
(declare-fun call__DRAGON_.ite8 () Int)
(declare-fun call__DRAGON_.ite22 () Int)
(declare-fun _R5_ () Bool)
(declare-fun call__DRAGON_.ite28 () Int)
(declare-fun dirty () Int)
(declare-fun call_First5.flby () Int)
(declare-fun call_excludes12.excludes () Bool)
(declare-fun _R14_ () Bool)
(declare-fun _R11_ () Bool)
(declare-fun call__DRAGON_.ite42 () Int)
(declare-fun param_e10 () Bool)
(declare-fun _R8_ () Bool)
(declare-fun call__DRAGON_.ite14 () Int)
(declare-fun call__DRAGON_.ite11 () Int)
(declare-fun call__DRAGON_.ite25 () Int)
(declare-fun call__DRAGON_.ite56 () Int)
(declare-fun call__DRAGON_.shared () Int)
(declare-fun call_First3.First () Int)
(declare-fun call_First2.flby () Int)
(declare-fun call__DRAGON_.flby6 () Int)
(declare-fun call__DRAGON_.ite21 () Int)
(declare-fun call__DRAGON_.ite15 () Int)
(declare-fun call__DRAGON_.g06 () Bool)
(declare-fun call__DRAGON_.ite20 () Int)
(declare-fun call__DRAGON_.ite36 () Int)
(declare-fun call__DRAGON_.ite46 () Int)
(declare-fun exclusive () Int)
(declare-fun shared_dirty () Int)
(declare-fun flby () Bool)
(declare-fun call__DRAGON_.ite23 () Int)
(declare-fun call__DRAGON_.ite61 () Int)
(declare-fun _R2_ () Bool)
(declare-fun _R7_ () Bool)
(declare-fun call__DRAGON_.ite55 () Int)
(declare-fun call__DRAGON_.ite () Bool)
(declare-fun call__DRAGON_.ite31 () Int)
(declare-fun call__DRAGON_.ite44 () Int)
(declare-fun call__DRAGON_.ite3 () Int)
(declare-fun call__DRAGON_.ite45 () Int)
(declare-fun call__DRAGON_.g08 () Bool)
(declare-fun call__DRAGON_.dirty () Int)
(declare-fun call__DRAGON_.ite57 () Int)
(declare-fun call__DRAGON_.ite30 () Int)
(declare-fun call__DRAGON_.ite39 () Int)
(declare-fun _R6_ () Bool)
(declare-fun _R3_ () Bool)
(declare-fun call__DRAGON_.ite4 () Int)
(declare-fun call__DRAGON_.ite18 () Int)
(declare-fun _R12_ () Bool)
(declare-fun _R9_ () Bool)
(declare-fun call__DRAGON_.ite47 () Int)
(declare-fun call_First5.First () Int)
(declare-fun param_e12 () Bool)
(declare-fun call__DRAGON_.ite7 () Int)
(declare-fun shared () Int)
(declare-fun call__DRAGON_.flby5 () Int)
(declare-fun call__DRAGON_.ite24 () Int)
(declare-fun call__DRAGON_.ite54 () Int)
(declare-fun erreur () Bool)
(declare-fun call__DRAGON_.ite48 () Int)
(declare-fun param_e03 () Bool)
(declare-fun call__DRAGON_.ite60 () Int)
(declare-fun call__DRAGON_.ite40 () Int)
(declare-fun call__DRAGON_.ite27 () Int)
(declare-fun param_e02 () Bool)
(declare-fun call__DRAGON_.ite35 () Int)
(declare-fun param_e08 () Bool)
(declare-fun call__DRAGON_.invalid () Int)
(declare-fun call_First.First () Int)
(declare-fun call__DRAGON_.ite58 () Int)
(declare-fun call__DRAGON_.ite43 () Int)
(declare-fun call__DRAGON_.shared_dirty () Int)
(declare-fun call__DRAGON_.mem_init () Int)
(declare-fun call__DRAGON_.ite17 () Int)
(declare-fun call__DRAGON_.ite52 () Int)
(declare-fun call__DRAGON_.flby2 () Int)
(declare-fun call__DRAGON_.ite50 () Int)
(declare-fun call__DRAGON_.g02 () Bool)
(declare-fun param_e06 () Bool)
(declare-fun call_First3.flby () Int)
(declare-fun call_First4.flby () Int)
(declare-fun call__DRAGON_.ite5 () Int)
(declare-fun call__DRAGON_.ite53 () Int)
(declare-fun param_e04 () Bool)
(declare-fun call_First.flby () Int)
(declare-fun call__DRAGON_.ite9 () Int)
(declare-fun call_Sofar.Sofar () Bool)
(declare-fun call__DRAGON_.ite10 () Int)
(declare-fun param_e07 () Bool)
(declare-fun param_e01 () Bool)
(define-fun .def_2135 () Bool (= call_First5.flby call_First5.First))
(define-fun .def_2133 () Bool (= call_First4.flby call_First4.First))
(define-fun .def_2131 () Bool (= call_First3.flby call_First3.First))
(define-fun .def_2129 () Bool (= call_First2.flby call_First2.First))
(define-fun .def_2127 () Bool (= call_First.flby call_First.First))
(define-fun .def_2125 () Bool (= call_Sofar.flby call_Sofar.Sofar))
(define-fun .def_1968 () Bool (not param_e02))
(define-fun .def_1950 () Bool (not param_e01))
(define-fun .def_2023 () Bool (and .def_1950 .def_1968))
(define-fun .def_1679 () Bool (not param_e03))
(define-fun .def_2024 () Bool (and .def_1679 .def_2023))
(define-fun .def_1662 () Bool (not param_e04))
(define-fun .def_2025 () Bool (and .def_1662 .def_2024))
(define-fun .def_1698 () Bool (not param_e05))
(define-fun .def_2026 () Bool (and .def_1698 .def_2025))
(define-fun .def_1716 () Bool (not param_e06))
(define-fun .def_2027 () Bool (and .def_1716 .def_2026))
(define-fun .def_1790 () Bool (not param_e07))
(define-fun .def_2028 () Bool (and .def_1790 .def_2027))
(define-fun .def_1870 () Bool (not param_e08))
(define-fun .def_2029 () Bool (and .def_1870 .def_2028))
(define-fun .def_1541 () Bool (not param_e09))
(define-fun .def_2030 () Bool (and .def_1541 .def_2029))
(define-fun .def_1549 () Bool (not param_e10))
(define-fun .def_2031 () Bool (and .def_1549 .def_2030))
(define-fun .def_1556 () Bool (not param_e11))
(define-fun .def_2032 () Bool (and .def_1556 .def_2031))
(define-fun .def_1563 () Bool (not param_e12))
(define-fun .def_2110 () Bool (and .def_1563 .def_2032))
(define-fun .def_2099 () Bool (and param_e01 .def_1968))
(define-fun .def_2100 () Bool (and .def_1679 .def_2099))
(define-fun .def_2101 () Bool (and .def_1662 .def_2100))
(define-fun .def_2102 () Bool (and .def_1698 .def_2101))
(define-fun .def_2103 () Bool (and .def_1716 .def_2102))
(define-fun .def_2104 () Bool (and .def_1790 .def_2103))
(define-fun .def_2105 () Bool (and .def_1870 .def_2104))
(define-fun .def_2106 () Bool (and .def_1541 .def_2105))
(define-fun .def_2107 () Bool (and .def_1549 .def_2106))
(define-fun .def_2108 () Bool (and .def_1556 .def_2107))
(define-fun .def_2109 () Bool (and .def_1563 .def_2108))
(define-fun .def_2111 () Bool (or .def_2109 .def_2110))
(define-fun .def_2088 () Bool (and .def_1950 param_e02))
(define-fun .def_2089 () Bool (and .def_1679 .def_2088))
(define-fun .def_2090 () Bool (and .def_1662 .def_2089))
(define-fun .def_2091 () Bool (and .def_1698 .def_2090))
(define-fun .def_2092 () Bool (and .def_1716 .def_2091))
(define-fun .def_2093 () Bool (and .def_1790 .def_2092))
(define-fun .def_2094 () Bool (and .def_1870 .def_2093))
(define-fun .def_2095 () Bool (and .def_1541 .def_2094))
(define-fun .def_2096 () Bool (and .def_1549 .def_2095))
(define-fun .def_2097 () Bool (and .def_1556 .def_2096))
(define-fun .def_2098 () Bool (and .def_1563 .def_2097))
(define-fun .def_2112 () Bool (or .def_2098 .def_2111))
(define-fun .def_2078 () Bool (and param_e03 .def_2023))
(define-fun .def_2079 () Bool (and .def_1662 .def_2078))
(define-fun .def_2080 () Bool (and .def_1698 .def_2079))
(define-fun .def_2081 () Bool (and .def_1716 .def_2080))
(define-fun .def_2082 () Bool (and .def_1790 .def_2081))
(define-fun .def_2083 () Bool (and .def_1870 .def_2082))
(define-fun .def_2084 () Bool (and .def_1541 .def_2083))
(define-fun .def_2085 () Bool (and .def_1549 .def_2084))
(define-fun .def_2086 () Bool (and .def_1556 .def_2085))
(define-fun .def_2087 () Bool (and .def_1563 .def_2086))
(define-fun .def_2113 () Bool (or .def_2087 .def_2112))
(define-fun .def_2069 () Bool (and param_e04 .def_2024))
(define-fun .def_2070 () Bool (and .def_1698 .def_2069))
(define-fun .def_2071 () Bool (and .def_1716 .def_2070))
(define-fun .def_2072 () Bool (and .def_1790 .def_2071))
(define-fun .def_2073 () Bool (and .def_1870 .def_2072))
(define-fun .def_2074 () Bool (and .def_1541 .def_2073))
(define-fun .def_2075 () Bool (and .def_1549 .def_2074))
(define-fun .def_2076 () Bool (and .def_1556 .def_2075))
(define-fun .def_2077 () Bool (and .def_1563 .def_2076))
(define-fun .def_2114 () Bool (or .def_2077 .def_2113))
(define-fun .def_2061 () Bool (and param_e05 .def_2025))
(define-fun .def_2062 () Bool (and .def_1716 .def_2061))
(define-fun .def_2063 () Bool (and .def_1790 .def_2062))
(define-fun .def_2064 () Bool (and .def_1870 .def_2063))
(define-fun .def_2065 () Bool (and .def_1541 .def_2064))
(define-fun .def_2066 () Bool (and .def_1549 .def_2065))
(define-fun .def_2067 () Bool (and .def_1556 .def_2066))
(define-fun .def_2068 () Bool (and .def_1563 .def_2067))
(define-fun .def_2115 () Bool (or .def_2068 .def_2114))
(define-fun .def_2054 () Bool (and param_e06 .def_2026))
(define-fun .def_2055 () Bool (and .def_1790 .def_2054))
(define-fun .def_2056 () Bool (and .def_1870 .def_2055))
(define-fun .def_2057 () Bool (and .def_1541 .def_2056))
(define-fun .def_2058 () Bool (and .def_1549 .def_2057))
(define-fun .def_2059 () Bool (and .def_1556 .def_2058))
(define-fun .def_2060 () Bool (and .def_1563 .def_2059))
(define-fun .def_2116 () Bool (or .def_2060 .def_2115))
(define-fun .def_2048 () Bool (and param_e07 .def_2027))
(define-fun .def_2049 () Bool (and .def_1870 .def_2048))
(define-fun .def_2050 () Bool (and .def_1541 .def_2049))
(define-fun .def_2051 () Bool (and .def_1549 .def_2050))
(define-fun .def_2052 () Bool (and .def_1556 .def_2051))
(define-fun .def_2053 () Bool (and .def_1563 .def_2052))
(define-fun .def_2117 () Bool (or .def_2053 .def_2116))
(define-fun .def_2043 () Bool (and param_e08 .def_2028))
(define-fun .def_2044 () Bool (and .def_1541 .def_2043))
(define-fun .def_2045 () Bool (and .def_1549 .def_2044))
(define-fun .def_2046 () Bool (and .def_1556 .def_2045))
(define-fun .def_2047 () Bool (and .def_1563 .def_2046))
(define-fun .def_2118 () Bool (or .def_2047 .def_2117))
(define-fun .def_2039 () Bool (and param_e09 .def_2029))
(define-fun .def_2040 () Bool (and .def_1549 .def_2039))
(define-fun .def_2041 () Bool (and .def_1556 .def_2040))
(define-fun .def_2042 () Bool (and .def_1563 .def_2041))
(define-fun .def_2119 () Bool (or .def_2042 .def_2118))
(define-fun .def_2036 () Bool (and param_e10 .def_2030))
(define-fun .def_2037 () Bool (and .def_1556 .def_2036))
(define-fun .def_2038 () Bool (and .def_1563 .def_2037))
(define-fun .def_2120 () Bool (or .def_2038 .def_2119))
(define-fun .def_2034 () Bool (and param_e11 .def_2031))
(define-fun .def_2035 () Bool (and .def_1563 .def_2034))
(define-fun .def_2121 () Bool (or .def_2035 .def_2120))
(define-fun .def_2033 () Bool (and param_e12 .def_2032))
(define-fun .def_2122 () Bool (or .def_2033 .def_2121))
(define-fun .def_2123 () Bool (= call_excludes12.excludes .def_2122))
(define-fun .def_2021 () Bool (= call__DRAGON_.mem_init call__DRAGON_.flby))
(define-fun .def_2019 () Bool (= call__DRAGON_.erreur call__DRAGON_.ite))
(define-fun .def_2017 () Bool (= call__DRAGON_.flby6 call__DRAGON_.invalid))
(define-fun .def_2015 () Bool (= call__DRAGON_.flby5 call__DRAGON_.dirty))
(define-fun .def_2013 () Bool (= call__DRAGON_.flby4 call__DRAGON_.shared_dirty))
(define-fun .def_2011 () Bool (= call__DRAGON_.flby3 call__DRAGON_.shared))
(define-fun .def_2008 () Bool (= call__DRAGON_.flby2 call__DRAGON_.exclusive))
(define-fun .def_2003 () Bool (<= 2 call__DRAGON_.exclusive))
(define-fun .def_2005 () Bool (not .def_2003))
(define-fun .def_2006 () Bool (or call__DRAGON_.ite .def_2005))
(define-fun .def_2002 () Bool (not call__DRAGON_.ite))
(define-fun .def_2004 () Bool (or .def_2002 .def_2003))
(define-fun .def_2007 () Bool (and .def_2004 .def_2006))
(define-fun .def_2009 () Bool (and .def_2007 .def_2008))
(define-fun .def_1997 () Bool (= call__DRAGON_.ite30 call__DRAGON_.ite31))
(define-fun .def_1998 () Bool (or param_e02 .def_1997))
(define-fun .def_1994 () Bool (= call__DRAGON_.ite22 call__DRAGON_.ite31))
(define-fun .def_1995 () Bool (or .def_1968 .def_1994))
(define-fun .def_1989 () Bool (= call__DRAGON_.ite20 call__DRAGON_.ite21))
(define-fun .def_1990 () Bool (or param_e02 .def_1989))
(define-fun .def_1986 () Bool (= call__DRAGON_.ite12 call__DRAGON_.ite21))
(define-fun .def_1987 () Bool (or .def_1968 .def_1986))
(define-fun .def_1981 () Bool (= call__DRAGON_.ite9 call__DRAGON_.ite10))
(define-fun .def_1982 () Bool (or param_e02 .def_1981))
(define-fun .def_1978 () Bool (= call__DRAGON_.ite3 call__DRAGON_.ite10))
(define-fun .def_1979 () Bool (or .def_1968 .def_1978))
(define-fun .def_1975 () Bool (= call__DRAGON_.ite59 call__DRAGON_.ite60))
(define-fun .def_1976 () Bool (or param_e02 .def_1975))
(define-fun .def_1972 () Bool (= call__DRAGON_.ite60 call__DRAGON_.ite47))
(define-fun .def_1973 () Bool (or .def_1968 .def_1972))
(define-fun .def_1967 () Bool (= call__DRAGON_.ite32 call__DRAGON_.ite45))
(define-fun .def_1969 () Bool (or .def_1967 .def_1968))
(define-fun .def_1964 () Bool (= call__DRAGON_.ite44 call__DRAGON_.ite45))
(define-fun .def_1966 () Bool (or .def_1964 param_e02))
(define-fun .def_1970 () Bool (and .def_1966 .def_1969))
(define-fun .def_1974 () Bool (and .def_1970 .def_1973))
(define-fun .def_1977 () Bool (and .def_1974 .def_1976))
(define-fun .def_1980 () Bool (and .def_1977 .def_1979))
(define-fun .def_1983 () Bool (and .def_1980 .def_1982))
(define-fun .def_1988 () Bool (and .def_1983 .def_1987))
(define-fun .def_1991 () Bool (and .def_1988 .def_1990))
(define-fun .def_1996 () Bool (and .def_1991 .def_1995))
(define-fun .def_1999 () Bool (and .def_1996 .def_1998))
(define-fun .def_1959 () Bool (= call__DRAGON_.ite11 call__DRAGON_.ite10))
(define-fun .def_1960 () Bool (or param_e01 .def_1959))
(define-fun .def_1955 () Bool (= call__DRAGON_.ite2 call__DRAGON_.ite11))
(define-fun .def_1956 () Bool (or .def_1950 .def_1955))
(define-fun .def_1949 () Bool (= call__DRAGON_.ite61 call__DRAGON_.ite46))
(define-fun .def_1951 () Bool (or .def_1949 .def_1950))
(define-fun .def_1945 () Bool (= call__DRAGON_.ite61 call__DRAGON_.ite60))
(define-fun .def_1947 () Bool (or .def_1945 param_e01))
(define-fun .def_1952 () Bool (and .def_1947 .def_1951))
(define-fun .def_1957 () Bool (and .def_1952 .def_1956))
(define-fun .def_1961 () Bool (and .def_1957 .def_1960))
(define-fun .def_1939 () Bool (= call__DRAGON_.ite55 call__DRAGON_.ite52))
(define-fun .def_1940 () Bool (or .def_1556 .def_1939))
(define-fun .def_1936 () Bool (= call__DRAGON_.ite54 call__DRAGON_.ite55))
(define-fun .def_1937 () Bool (or param_e11 .def_1936))
(define-fun .def_1941 () Bool (and .def_1937 .def_1940))
(define-fun .def_1932 () Bool (= call__DRAGON_.ite56 call__DRAGON_.ite51))
(define-fun .def_1933 () Bool (or .def_1549 .def_1932))
(define-fun .def_1929 () Bool (= call__DRAGON_.ite56 call__DRAGON_.ite55))
(define-fun .def_1930 () Bool (or param_e10 .def_1929))
(define-fun .def_1934 () Bool (and .def_1930 .def_1933))
(define-fun .def_1924 () Bool (= call__DRAGON_.ite57 call__DRAGON_.ite50))
(define-fun .def_1925 () Bool (or .def_1541 .def_1924))
(define-fun .def_1921 () Bool (= call__DRAGON_.ite57 call__DRAGON_.ite56))
(define-fun .def_1922 () Bool (or param_e09 .def_1921))
(define-fun .def_1926 () Bool (and .def_1922 .def_1925))
(define-fun .def_1918 () Bool (= env call_Sofar.Sofar))
(define-fun .def_1915 () Bool (= erreur call__DRAGON_.erreur))
(define-fun .def_1910 () Bool (<= invalid call_First5.First))
(define-fun .def_1780 () Bool (not env))
(define-fun .def_1911 () Bool (or .def_1780 .def_1910))
(define-fun .def_1912 () Bool (= _R14_ .def_1911))
(define-fun .def_1905 () Bool (<= dirty call_First4.First))
(define-fun .def_1906 () Bool (or .def_1780 .def_1905))
(define-fun .def_1907 () Bool (= _R13_ .def_1906))
(define-fun .def_1900 () Bool (<= shared_dirty call_First3.First))
(define-fun .def_1901 () Bool (or .def_1780 .def_1900))
(define-fun .def_1902 () Bool (= _R12_ .def_1901))
(define-fun .def_1895 () Bool (= call__DRAGON_.ite39 call__DRAGON_.ite40))
(define-fun .def_1896 () Bool (or param_e08 .def_1895))
(define-fun .def_1892 () Bool (= call__DRAGON_.ite37 call__DRAGON_.ite40))
(define-fun .def_1893 () Bool (or .def_1870 .def_1892))
(define-fun .def_1889 () Bool (= call__DRAGON_.ite27 call__DRAGON_.ite28))
(define-fun .def_1890 () Bool (or param_e08 .def_1889))
(define-fun .def_1886 () Bool (= call__DRAGON_.ite25 call__DRAGON_.ite28))
(define-fun .def_1887 () Bool (or .def_1870 .def_1886))
(define-fun .def_1883 () Bool (= call__DRAGON_.ite17 call__DRAGON_.ite18))
(define-fun .def_1884 () Bool (or param_e08 .def_1883))
(define-fun .def_1880 () Bool (= call__DRAGON_.ite18 call__DRAGON_.ite15))
(define-fun .def_1881 () Bool (or .def_1870 .def_1880))
(define-fun .def_1876 () Bool (= call__DRAGON_.ite7 call__DRAGON_.ite8))
(define-fun .def_1877 () Bool (or param_e08 .def_1876))
(define-fun .def_1873 () Bool (= call__DRAGON_.ite5 call__DRAGON_.ite8))
(define-fun .def_1874 () Bool (or .def_1870 .def_1873))
(define-fun .def_1869 () Bool (= call__DRAGON_.ite58 call__DRAGON_.ite49))
(define-fun .def_1871 () Bool (or .def_1869 .def_1870))
(define-fun .def_1865 () Bool (= call__DRAGON_.ite58 call__DRAGON_.ite57))
(define-fun .def_1867 () Bool (or .def_1865 param_e08))
(define-fun .def_1872 () Bool (and .def_1867 .def_1871))
(define-fun .def_1875 () Bool (and .def_1872 .def_1874))
(define-fun .def_1878 () Bool (and .def_1875 .def_1877))
(define-fun .def_1882 () Bool (and .def_1878 .def_1881))
(define-fun .def_1885 () Bool (and .def_1882 .def_1884))
(define-fun .def_1888 () Bool (and .def_1885 .def_1887))
(define-fun .def_1891 () Bool (and .def_1888 .def_1890))
(define-fun .def_1894 () Bool (and .def_1891 .def_1893))
(define-fun .def_1897 () Bool (and .def_1894 .def_1896))
(define-fun .def_1860 () Bool (<= shared call_First2.First))
(define-fun .def_1861 () Bool (or .def_1780 .def_1860))
(define-fun .def_1862 () Bool (= _R11_ .def_1861))
(define-fun .def_1855 () Bool (<= 0 invalid))
(define-fun .def_1856 () Bool (or .def_1780 .def_1855))
(define-fun .def_1857 () Bool (= _R10_ .def_1856))
(define-fun .def_1851 () Bool (<= 0 dirty))
(define-fun .def_1852 () Bool (or .def_1780 .def_1851))
(define-fun .def_1853 () Bool (= _R9_ .def_1852))
(define-fun .def_1847 () Bool (<= 0 shared_dirty))
(define-fun .def_1848 () Bool (or .def_1780 .def_1847))
(define-fun .def_1849 () Bool (= _R8_ .def_1848))
(define-fun .def_1843 () Bool (<= 0 exclusive))
(define-fun .def_1844 () Bool (or .def_1780 .def_1843))
(define-fun .def_1845 () Bool (= _R7_ .def_1844))
(define-fun .def_1839 () Bool (<= 0 shared))
(define-fun .def_1840 () Bool (or .def_1780 .def_1839))
(define-fun .def_1841 () Bool (= _R6_ .def_1840))
(define-fun .def_1833 () Bool (<= 1 shared))
(define-fun .def_1834 () Bool (not .def_1833))
(define-fun .def_1831 () Bool (<= 1 dirty))
(define-fun .def_1832 () Bool (not .def_1831))
(define-fun .def_1835 () Bool (or .def_1832 .def_1834))
(define-fun .def_1836 () Bool (or .def_1780 .def_1835))
(define-fun .def_1837 () Bool (= _R5_ .def_1836))
(define-fun .def_1827 () Bool (<= dirty 1))
(define-fun .def_1828 () Bool (or .def_1780 .def_1827))
(define-fun .def_1829 () Bool (= _R4_ .def_1828))
(define-fun .def_1817 () Int (* (- 1) call_First.First))
(define-fun .def_1818 () Int (+ invalid .def_1817))
(define-fun .def_1819 () Int (+ dirty .def_1818))
(define-fun .def_1820 () Int (+ shared_dirty .def_1819))
(define-fun .def_1821 () Int (+ shared .def_1820))
(define-fun .def_1822 () Int (+ exclusive .def_1821))
(define-fun .def_1823 () Bool (= .def_1822 0))
(define-fun .def_1824 () Bool (or .def_1780 .def_1823))
(define-fun .def_1825 () Bool (= _R3_ .def_1824))
(define-fun .def_1803 () Bool (or flby .def_1780))
(define-fun .def_1804 () Bool (= _R2_ .def_1803))
(define-fun .def_1799 () Bool (= call__DRAGON_.ite59 call__DRAGON_.ite58))
(define-fun .def_1800 () Bool (or param_e07 .def_1799))
(define-fun .def_1795 () Bool (= call__DRAGON_.ite48 call__DRAGON_.ite59))
(define-fun .def_1796 () Bool (or .def_1790 .def_1795))
(define-fun .def_1789 () Bool (= call__DRAGON_.ite41 call__DRAGON_.ite36))
(define-fun .def_1791 () Bool (or .def_1789 .def_1790))
(define-fun .def_1785 () Bool (= call__DRAGON_.ite41 call__DRAGON_.ite40))
(define-fun .def_1787 () Bool (or .def_1785 param_e07))
(define-fun .def_1792 () Bool (and .def_1787 .def_1791))
(define-fun .def_1797 () Bool (and .def_1792 .def_1796))
(define-fun .def_1801 () Bool (and .def_1797 .def_1800))
(define-fun .def_1778 () Bool (not erreur))
(define-fun .def_1781 () Bool (or .def_1778 .def_1780))
(define-fun .def_1782 () Bool (= _R1_ .def_1781))
(define-fun .def_1775 () Bool (= invalid call__DRAGON_.invalid))
(define-fun .def_1771 () Bool (= dirty call__DRAGON_.dirty))
(define-fun .def_1767 () Bool (= shared_dirty call__DRAGON_.shared_dirty))
(define-fun .def_1763 () Bool (= shared call__DRAGON_.shared))
(define-fun .def_1759 () Bool (= exclusive call__DRAGON_.exclusive))
(define-fun .def_1730 () Bool (and _R1_ _R2_))
(define-fun .def_1732 () Bool (and .def_1730 _R3_))
(define-fun .def_1734 () Bool (and .def_1732 _R4_))
(define-fun .def_1736 () Bool (and .def_1734 _R5_))
(define-fun .def_1738 () Bool (and .def_1736 _R6_))
(define-fun .def_1740 () Bool (and .def_1738 _R7_))
(define-fun .def_1742 () Bool (and .def_1740 _R8_))
(define-fun .def_1744 () Bool (and .def_1742 _R9_))
(define-fun .def_1746 () Bool (and .def_1744 _R10_))
(define-fun .def_1748 () Bool (and .def_1746 _R11_))
(define-fun .def_1750 () Bool (and .def_1748 _R12_))
(define-fun .def_1752 () Bool (and .def_1750 _R13_))
(define-fun .def_1754 () Bool (and .def_1752 _R14_))
(define-fun .def_1755 () Bool (= _OK_ .def_1754))
(define-fun .def_1723 () Bool (= call__DRAGON_.ite29 call__DRAGON_.ite28))
(define-fun .def_1724 () Bool (or param_e06 .def_1723))
(define-fun .def_1719 () Bool (= call__DRAGON_.ite24 call__DRAGON_.ite29))
(define-fun .def_1720 () Bool (or .def_1716 .def_1719))
(define-fun .def_1715 () Bool (= call__DRAGON_.ite19 call__DRAGON_.ite14))
(define-fun .def_1717 () Bool (or .def_1715 .def_1716))
(define-fun .def_1711 () Bool (= call__DRAGON_.ite19 call__DRAGON_.ite18))
(define-fun .def_1713 () Bool (or .def_1711 param_e06))
(define-fun .def_1718 () Bool (and .def_1713 .def_1717))
(define-fun .def_1721 () Bool (and .def_1718 .def_1720))
(define-fun .def_1725 () Bool (and .def_1721 .def_1724))
(define-fun .def_1706 () Bool (= call__DRAGON_.ite20 call__DRAGON_.ite19))
(define-fun .def_1707 () Bool (or param_e05 .def_1706))
(define-fun .def_1702 () Bool (= call__DRAGON_.ite13 call__DRAGON_.ite20))
(define-fun .def_1703 () Bool (or .def_1698 .def_1702))
(define-fun .def_1697 () Bool (= call__DRAGON_.ite42 call__DRAGON_.ite35))
(define-fun .def_1699 () Bool (or .def_1697 .def_1698))
(define-fun .def_1693 () Bool (= call__DRAGON_.ite42 call__DRAGON_.ite41))
(define-fun .def_1695 () Bool (or .def_1693 param_e05))
(define-fun .def_1700 () Bool (and .def_1695 .def_1699))
(define-fun .def_1704 () Bool (and .def_1700 .def_1703))
(define-fun .def_1708 () Bool (and .def_1704 .def_1707))
(define-fun .def_1688 () Bool (= call__DRAGON_.ite9 call__DRAGON_.ite8))
(define-fun .def_1689 () Bool (or param_e03 .def_1688))
(define-fun .def_1684 () Bool (= call__DRAGON_.ite4 call__DRAGON_.ite9))
(define-fun .def_1685 () Bool (or .def_1679 .def_1684))
(define-fun .def_1678 () Bool (= call__DRAGON_.ite44 call__DRAGON_.ite33))
(define-fun .def_1680 () Bool (or .def_1678 .def_1679))
(define-fun .def_1674 () Bool (= call__DRAGON_.ite43 call__DRAGON_.ite44))
(define-fun .def_1676 () Bool (or .def_1674 param_e03))
(define-fun .def_1681 () Bool (and .def_1676 .def_1680))
(define-fun .def_1686 () Bool (and .def_1681 .def_1685))
(define-fun .def_1690 () Bool (and .def_1686 .def_1689))
(define-fun .def_1670 () Bool (= call__DRAGON_.ite30 call__DRAGON_.ite29))
(define-fun .def_1671 () Bool (or param_e04 .def_1670))
(define-fun .def_1666 () Bool (= call__DRAGON_.ite23 call__DRAGON_.ite30))
(define-fun .def_1667 () Bool (or .def_1662 .def_1666))
(define-fun .def_1661 () Bool (= call__DRAGON_.ite43 call__DRAGON_.ite34))
(define-fun .def_1663 () Bool (or .def_1661 .def_1662))
(define-fun .def_1657 () Bool (= call__DRAGON_.ite43 call__DRAGON_.ite42))
(define-fun .def_1659 () Bool (or .def_1657 param_e04))
(define-fun .def_1664 () Bool (and .def_1659 .def_1663))
(define-fun .def_1668 () Bool (and .def_1664 .def_1667))
(define-fun .def_1672 () Bool (and .def_1668 .def_1671))
(define-fun .def_1691 () Bool (and .def_1672 .def_1690))
(define-fun .def_1709 () Bool (and .def_1691 .def_1708))
(define-fun .def_1726 () Bool (and .def_1709 .def_1725))
(define-fun .def_1756 () Bool (and .def_1726 .def_1755))
(define-fun .def_1760 () Bool (and .def_1756 .def_1759))
(define-fun .def_1764 () Bool (and .def_1760 .def_1763))
(define-fun .def_1768 () Bool (and .def_1764 .def_1767))
(define-fun .def_1772 () Bool (and .def_1768 .def_1771))
(define-fun .def_1776 () Bool (and .def_1772 .def_1775))
(define-fun .def_1783 () Bool (and .def_1776 .def_1782))
(define-fun .def_1802 () Bool (and .def_1783 .def_1801))
(define-fun .def_1805 () Bool (and .def_1802 .def_1804))
(define-fun .def_1826 () Bool (and .def_1805 .def_1825))
(define-fun .def_1830 () Bool (and .def_1826 .def_1829))
(define-fun .def_1838 () Bool (and .def_1830 .def_1837))
(define-fun .def_1842 () Bool (and .def_1838 .def_1841))
(define-fun .def_1846 () Bool (and .def_1842 .def_1845))
(define-fun .def_1850 () Bool (and .def_1846 .def_1849))
(define-fun .def_1854 () Bool (and .def_1850 .def_1853))
(define-fun .def_1858 () Bool (and .def_1854 .def_1857))
(define-fun .def_1863 () Bool (and .def_1858 .def_1862))
(define-fun .def_1898 () Bool (and .def_1863 .def_1897))
(define-fun .def_1903 () Bool (and .def_1898 .def_1902))
(define-fun .def_1908 () Bool (and .def_1903 .def_1907))
(define-fun .def_1913 () Bool (and .def_1908 .def_1912))
(define-fun .def_1916 () Bool (and .def_1913 .def_1915))
(define-fun .def_1919 () Bool (and .def_1916 .def_1918))
(define-fun .def_1927 () Bool (and .def_1919 .def_1926))
(define-fun .def_1935 () Bool (and .def_1927 .def_1934))
(define-fun .def_1942 () Bool (and .def_1935 .def_1941))
(define-fun .def_1962 () Bool (and .def_1942 .def_1961))
(define-fun .def_2000 () Bool (and .def_1962 .def_1999))
(define-fun .def_2010 () Bool (and .def_2000 .def_2009))
(define-fun .def_2012 () Bool (and .def_2010 .def_2011))
(define-fun .def_2014 () Bool (and .def_2012 .def_2013))
(define-fun .def_2016 () Bool (and .def_2014 .def_2015))
(define-fun .def_2018 () Bool (and .def_2016 .def_2017))
(define-fun .def_2020 () Bool (and .def_2018 .def_2019))
(define-fun .def_2022 () Bool (and .def_2020 .def_2021))
(define-fun .def_2124 () Bool (and .def_2022 .def_2123))
(define-fun .def_2126 () Bool (and .def_2124 .def_2125))
(define-fun .def_2128 () Bool (and .def_2126 .def_2127))
(define-fun .def_2130 () Bool (and .def_2128 .def_2129))
(define-fun .def_2132 () Bool (and .def_2130 .def_2131))
(define-fun .def_2134 () Bool (and .def_2132 .def_2133))
(define-fun .def_2136 () Bool (and .def_2134 .def_2135))
(define-fun .def_1653 () Bool (= param_init_invalid call_First5.flby))
(define-fun .def_1650 () Bool (= param_init_invalid call_First4.flby))
(define-fun .def_1647 () Bool (= param_init_invalid call_First3.flby))
(define-fun .def_1644 () Bool (= param_init_invalid call_First2.flby))
(define-fun .def_1641 () Bool (= param_init_invalid call_First.flby))
(define-fun .def_1633 () Bool (<= param_init_invalid 0))
(define-fun .def_1634 () Bool (not .def_1633))
(define-fun .def_1636 () Bool (and .def_1634 call_excludes12.excludes))
(define-fun .def_1638 () Bool (= .def_1636 call_Sofar.flby))
(define-fun .def_1631 () Bool (= call__DRAGON_.flby4 0))
(define-fun .def_1628 () Bool (= call__DRAGON_.flby3 0))
(define-fun .def_1625 () Bool (= call__DRAGON_.flby2 0))
(define-fun .def_1622 () Bool (= param_init_invalid call__DRAGON_.flby))
(define-fun .def_1616 () Bool (= call__DRAGON_.ite37 0))
(define-fun .def_1609 () Bool (not call__DRAGON_.g08))
(define-fun .def_1617 () Bool (or .def_1609 .def_1616))
(define-fun .def_1612 () Bool (= call__DRAGON_.ite5 0))
(define-fun .def_1613 () Bool (or .def_1609 .def_1612))
(define-fun .def_1607 () Bool (= call__DRAGON_.ite25 1))
(define-fun .def_1610 () Bool (or .def_1607 .def_1609))
(define-fun .def_1614 () Bool (and .def_1610 .def_1613))
(define-fun .def_1618 () Bool (and .def_1614 .def_1617))
(define-fun .def_1603 () Bool (= call__DRAGON_.ite24 1))
(define-fun .def_1601 () Bool (not call__DRAGON_.g06))
(define-fun .def_1604 () Bool (or .def_1601 .def_1603))
(define-fun .def_1597 () Bool (= call__DRAGON_.ite13 0))
(define-fun .def_1595 () Bool (not call__DRAGON_.g05))
(define-fun .def_1598 () Bool (or .def_1595 .def_1597))
(define-fun .def_1591 () Bool (= call__DRAGON_.ite23 0))
(define-fun .def_1589 () Bool (not call__DRAGON_.g04))
(define-fun .def_1592 () Bool (or .def_1589 .def_1591))
(define-fun .def_1584 () Bool (= call__DRAGON_.ite3 0))
(define-fun .def_1581 () Bool (not call__DRAGON_.g02))
(define-fun .def_1585 () Bool (or .def_1581 .def_1584))
(define-fun .def_1579 () Bool (= call__DRAGON_.ite32 0))
(define-fun .def_1582 () Bool (or .def_1579 .def_1581))
(define-fun .def_1586 () Bool (and .def_1582 .def_1585))
(define-fun .def_1576 () Bool (= call__DRAGON_.flby6 call__DRAGON_.mem_init))
(define-fun .def_1572 () Bool (= call__DRAGON_.flby5 0))
(define-fun .def_1567 () Bool (= call__DRAGON_.ite53 call__DRAGON_.ite54))
(define-fun .def_1568 () Bool (or .def_1563 .def_1567))
(define-fun .def_1561 () Bool (= call__DRAGON_.ite6 call__DRAGON_.ite7))
(define-fun .def_1564 () Bool (or .def_1561 .def_1563))
(define-fun .def_1569 () Bool (and .def_1564 .def_1568))
(define-fun .def_1554 () Bool (= call__DRAGON_.ite26 call__DRAGON_.ite27))
(define-fun .def_1557 () Bool (or .def_1554 .def_1556))
(define-fun .def_1547 () Bool (= call__DRAGON_.ite16 call__DRAGON_.ite17))
(define-fun .def_1550 () Bool (or .def_1547 .def_1549))
(define-fun .def_1539 () Bool (= call__DRAGON_.ite38 call__DRAGON_.ite39))
(define-fun .def_1542 () Bool (or .def_1539 .def_1541))
(define-fun .def_1544 () Bool (and .def_1542 flby))
(define-fun .def_1551 () Bool (and .def_1544 .def_1550))
(define-fun .def_1558 () Bool (and .def_1551 .def_1557))
(define-fun .def_1570 () Bool (and .def_1558 .def_1569))
(define-fun .def_1573 () Bool (and .def_1570 .def_1572))
(define-fun .def_1577 () Bool (and .def_1573 .def_1576))
(define-fun .def_1587 () Bool (and .def_1577 .def_1586))
(define-fun .def_1593 () Bool (and .def_1587 .def_1592))
(define-fun .def_1599 () Bool (and .def_1593 .def_1598))
(define-fun .def_1605 () Bool (and .def_1599 .def_1604))
(define-fun .def_1619 () Bool (and .def_1605 .def_1618))
(define-fun .def_1623 () Bool (and .def_1619 .def_1622))
(define-fun .def_1626 () Bool (and .def_1623 .def_1625))
(define-fun .def_1629 () Bool (and .def_1626 .def_1628))
(define-fun .def_1632 () Bool (and .def_1629 .def_1631))
(define-fun .def_1639 () Bool (and .def_1632 .def_1638))
(define-fun .def_1642 () Bool (and .def_1639 .def_1641))
(define-fun .def_1645 () Bool (and .def_1642 .def_1644))
(define-fun .def_1648 () Bool (and .def_1645 .def_1647))
(define-fun .def_1651 () Bool (and .def_1648 .def_1650))
(define-fun .def_1654 () Bool (and .def_1651 .def_1653))
(define-fun .def_2137 () Bool (and .def_1654 .def_2136))
(assert .def_2137)
